Maximize
  0.00775780450279794 Z_403_0_0 + 0.0191473548272592 Z_403_0_1
   + 0.0617636841059733 Z_403_0_2 + 0.7690761553101542 Z_403_0_3
   + 0.00419442080965892 Z_510_0_0 + 0.010199590185371 Z_510_0_1
   + 0.3050288986972333 Z_510_0_2 + 0.7564162007262507 Z_510_0_3
   + 0.00419442080965892 Z_510_2_0 + 0.010199590185371 Z_510_2_1
   + 0.3050288986972333 Z_510_2_2 + 0.7564162007262507 Z_510_2_3
   + 0.0132926550841974 Z_510_1_0 + 0.0633178433710993 Z_510_1_1
   + 0.0434967867769257 Z_510_1_2 + 0.142092353827537 Z_510_1_3
   + 0.010939020528394 Z_154_0_0 + 0.00354152958184959 Z_154_0_1
   + 0.6491499052390898 Z_154_0_2 + 0.0219126619052927 Z_154_0_3
   + 0.010939020528394 Z_154_1_0 + 0.00354152958184959 Z_154_1_1
   + 0.6491499052390898 Z_154_1_2 + 0.0219126619052927 Z_154_1_3
   + 0.1712932691749624 Z_154_2_0 + 0.0687524184149873 Z_154_2_1
   + 0.0235790524208356 Z_154_2_2 + 0.052492059340578 Z_154_2_3
   + 0.0326455573649312 Z_125_0_0 + 0.6544339428199055 Z_125_0_1
   + 0.00802697184304506 Z_125_0_2 + 0.0378416372305849 Z_125_0_3
   + 0.0853537707203255 Z_433_0_0 + 0.447510151167046 Z_433_0_1
   + 0.00838349563894015 Z_433_0_2 + 0.1745675090258859 Z_433_0_3
   + 0.0290896509908142 Z_51_0_0 + 0.1293043791262898 Z_51_0_1
   + 0.0327103928034049 Z_51_0_2 + 0.1599755736307427 Z_51_0_3
   + 0.0853537707203255 Z_627_0_0 + 0.447510151167046 Z_627_0_1
   + 0.00838349563894015 Z_627_0_2 + 0.1745675090258859 Z_627_0_3
   + 0.0352805166423688 Z_201_0_0 + 0.0431149039956382 Z_201_0_1
   + 0.00480956032472155 Z_201_0_2 + 0.1204946926980332 Z_201_0_3 + [
   0.00232213569445488 Z_403_0_0 * Z_154_0_0
   + 0.00232213569445488 Z_403_0_0 * Z_154_1_0
   + 0.00137888722632295 Z_403_0_0 * Z_125_0_0
   + 0.00232213569445488 Z_403_0_1 * Z_154_0_1
   + 0.00232213569445488 Z_403_0_1 * Z_154_1_1
   + 0.00137888722632295 Z_403_0_1 * Z_125_0_1
   + 0.00232213569445488 Z_403_0_2 * Z_154_0_2
   + 0.00232213569445488 Z_403_0_2 * Z_154_1_2
   + 0.00137888722632295 Z_403_0_2 * Z_125_0_2
   + 0.00232213569445488 Z_403_0_3 * Z_154_0_3
   + 0.00232213569445488 Z_403_0_3 * Z_154_1_3
   + 0.00137888722632295 Z_403_0_3 * Z_125_0_3
   + 3.4089e-07 Z_510_0_0 * Z_125_0_0
   + 2.0661157024793385e-04 Z_510_0_0 * Z_201_0_0
   + 3.4089e-07 Z_510_0_1 * Z_125_0_1
   + 2.0661157024793385e-04 Z_510_0_1 * Z_201_0_1
   + 3.4089e-07 Z_510_0_2 * Z_125_0_2
   + 2.0661157024793385e-04 Z_510_0_2 * Z_201_0_2
   + 3.4089e-07 Z_510_0_3 * Z_125_0_3
   + 2.0661157024793385e-04 Z_510_0_3 * Z_201_0_3
   + 0.00483742518956222 Z_510_2_0 * Z_154_0_0
   + 0.00483742518956222 Z_510_2_0 * Z_154_1_0
   + 3.4089e-07 Z_510_2_0 * Z_125_0_0 + 4.25627e-05 Z_510_2_0 * Z_201_0_0
   + 0.00483742518956222 Z_510_2_1 * Z_154_0_1
   + 0.00483742518956222 Z_510_2_1 * Z_154_1_1
   + 3.4089e-07 Z_510_2_1 * Z_125_0_1 + 4.25627e-05 Z_510_2_1 * Z_201_0_1
   + 0.00483742518956222 Z_510_2_2 * Z_154_0_2
   + 0.00483742518956222 Z_510_2_2 * Z_154_1_2
   + 3.4089e-07 Z_510_2_2 * Z_125_0_2 + 4.25627e-05 Z_510_2_2 * Z_201_0_2
   + 0.00483742518956222 Z_510_2_3 * Z_154_0_3
   + 0.00483742518956222 Z_510_2_3 * Z_154_1_3
   + 3.4089e-07 Z_510_2_3 * Z_125_0_3 + 4.25627e-05 Z_510_2_3 * Z_201_0_3
   + 0.00609250284744877 Z_510_1_0 * Z_154_0_0
   + 0.00609250284744877 Z_510_1_0 * Z_154_1_0
   + 0.00609250284744877 Z_510_1_1 * Z_154_0_1
   + 0.00609250284744877 Z_510_1_1 * Z_154_1_1
   + 0.00609250284744877 Z_510_1_2 * Z_154_0_2
   + 0.00609250284744877 Z_510_1_2 * Z_154_1_2
   + 0.00609250284744877 Z_510_1_3 * Z_154_0_3
   + 0.00609250284744877 Z_510_1_3 * Z_154_1_3
   + 0.00861804516451847 Z_154_1_0 * Z_125_0_0
   + 0.0260374471182398 Z_154_1_0 * Z_433_0_0
   + 0.0260374471182398 Z_154_1_0 * Z_627_0_0
   + 0.00861804516451847 Z_154_1_1 * Z_125_0_1
   + 0.0260374471182398 Z_154_1_1 * Z_433_0_1
   + 0.0260374471182398 Z_154_1_1 * Z_627_0_1
   + 0.00861804516451847 Z_154_1_2 * Z_125_0_2
   + 0.0260374471182398 Z_154_1_2 * Z_433_0_2
   + 0.0260374471182398 Z_154_1_2 * Z_627_0_2
   + 0.00861804516451847 Z_154_1_3 * Z_125_0_3
   + 0.0260374471182398 Z_154_1_3 * Z_433_0_3
   + 0.0260374471182398 Z_154_1_3 * Z_627_0_3
   + 0.00861804516451847 Z_154_2_0 * Z_125_0_0
   + 0.0260374471182398 Z_154_2_0 * Z_433_0_0
   + 0.0260374471182398 Z_154_2_0 * Z_627_0_0
   + 0.00861804516451847 Z_154_2_1 * Z_125_0_1
   + 0.0260374471182398 Z_154_2_1 * Z_433_0_1
   + 0.0260374471182398 Z_154_2_1 * Z_627_0_1
   + 0.00861804516451847 Z_154_2_2 * Z_125_0_2
   + 0.0260374471182398 Z_154_2_2 * Z_433_0_2
   + 0.0260374471182398 Z_154_2_2 * Z_627_0_2
   + 0.00861804516451847 Z_154_2_3 * Z_125_0_3
   + 0.0260374471182398 Z_154_2_3 * Z_433_0_3
   + 0.0260374471182398 Z_154_2_3 * Z_627_0_3
   + 0.0291860322758629 Z_125_0_0 * Z_433_0_0
   + 0.0291860322758629 Z_125_0_0 * Z_627_0_0
   + 7.12235e-05 Z_125_0_0 * Z_201_0_0
   + 0.0291860322758629 Z_125_0_1 * Z_433_0_1
   + 0.0291860322758629 Z_125_0_1 * Z_627_0_1
   + 7.12235e-05 Z_125_0_1 * Z_201_0_1
   + 0.0291860322758629 Z_125_0_2 * Z_433_0_2
   + 0.0291860322758629 Z_125_0_2 * Z_627_0_2
   + 7.12235e-05 Z_125_0_2 * Z_201_0_2
   + 0.0291860322758629 Z_125_0_3 * Z_433_0_3
   + 0.0291860322758629 Z_125_0_3 * Z_627_0_3
   + 7.12235e-05 Z_125_0_3 * Z_201_0_3 + 0.4 Z_433_0_0 * Z_627_0_0
   + 0.00740499275588251 Z_433_0_0 * Z_201_0_0 + 0.4 Z_433_0_1 * Z_627_0_1
   + 0.00740499275588251 Z_433_0_1 * Z_201_0_1 + 0.4 Z_433_0_2 * Z_627_0_2
   + 0.00740499275588251 Z_433_0_2 * Z_201_0_2 + 0.4 Z_433_0_3 * Z_627_0_3
   + 0.00740499275588251 Z_433_0_3 * Z_201_0_3
   + 0.0548249899549404 Z_51_0_0 * Z_201_0_0
   + 0.0548249899549404 Z_51_0_1 * Z_201_0_1
   + 0.0548249899549404 Z_51_0_2 * Z_201_0_2
   + 0.0548249899549404 Z_51_0_3 * Z_201_0_3
   + 0.00740499275588251 Z_627_0_0 * Z_201_0_0
   + 0.00740499275588251 Z_627_0_1 * Z_201_0_1
   + 0.00740499275588251 Z_627_0_2 * Z_201_0_2
   + 0.00740499275588251 Z_627_0_3 * Z_201_0_3 ] / 2 
Subject To
 constraint1_4030: Z_403_0_0 + Z_403_0_1 + Z_403_0_2 + Z_403_0_3 <= 1
 constraint1_5100: Z_510_0_0 + Z_510_0_1 + Z_510_0_2 + Z_510_0_3 <= 1
 constraint1_5102: Z_510_2_0 + Z_510_2_1 + Z_510_2_2 + Z_510_2_3 <= 1
 constraint1_5101: Z_510_1_0 + Z_510_1_1 + Z_510_1_2 + Z_510_1_3 <= 1
 constraint1_1540: Z_154_0_0 + Z_154_0_1 + Z_154_0_2 + Z_154_0_3 <= 1
 constraint1_1541: Z_154_1_0 + Z_154_1_1 + Z_154_1_2 + Z_154_1_3 <= 1
 constraint1_1542: Z_154_2_0 + Z_154_2_1 + Z_154_2_2 + Z_154_2_3 <= 1
 constraint1_1250: Z_125_0_0 + Z_125_0_1 + Z_125_0_2 + Z_125_0_3 <= 1
 constraint1_4330: Z_433_0_0 + Z_433_0_1 + Z_433_0_2 + Z_433_0_3 <= 1
 constraint1_510: Z_51_0_0 + Z_51_0_1 + Z_51_0_2 + Z_51_0_3 <= 1
 constraint1_6270: Z_627_0_0 + Z_627_0_1 + Z_627_0_2 + Z_627_0_3 <= 1
 constraint1_2010: Z_201_0_0 + Z_201_0_1 + Z_201_0_2 + Z_201_0_3 <= 1
 constraint2_4030: Z_403_0_0 <= 1
 constraint2_4031: Z_403_0_1 <= 1
 constraint2_4032: Z_403_0_2 <= 1
 constraint2_4033: Z_403_0_3 <= 1
 constraint2_5100: Z_510_0_0 + Z_510_2_0 + Z_510_1_0 <= 1
 constraint2_5101: Z_510_0_1 + Z_510_2_1 + Z_510_1_1 <= 1
 constraint2_5102: Z_510_0_2 + Z_510_2_2 + Z_510_1_2 <= 1
 constraint2_5103: Z_510_0_3 + Z_510_2_3 + Z_510_1_3 <= 1
 constraint2_1540: Z_154_0_0 + Z_154_1_0 + Z_154_2_0 <= 1
 constraint2_1541: Z_154_0_1 + Z_154_1_1 + Z_154_2_1 <= 1
 constraint2_1542: Z_154_0_2 + Z_154_1_2 + Z_154_2_2 <= 1
 constraint2_1543: Z_154_0_3 + Z_154_1_3 + Z_154_2_3 <= 1
 constraint2_1250: Z_125_0_0 <= 1
 constraint2_1251: Z_125_0_1 <= 1
 constraint2_1252: Z_125_0_2 <= 1
 constraint2_1253: Z_125_0_3 <= 1
 constraint2_4330: Z_433_0_0 <= 1
 constraint2_4331: Z_433_0_1 <= 1
 constraint2_4332: Z_433_0_2 <= 1
 constraint2_4333: Z_433_0_3 <= 1
 constraint2_510: Z_51_0_0 <= 1
 constraint2_511: Z_51_0_1 <= 1
 constraint2_512: Z_51_0_2 <= 1
 constraint2_513: Z_51_0_3 <= 1
 constraint2_6270: Z_627_0_0 <= 1
 constraint2_6271: Z_627_0_1 <= 1
 constraint2_6272: Z_627_0_2 <= 1
 constraint2_6273: Z_627_0_3 <= 1
 constraint2_2010: Z_201_0_0 <= 1
 constraint2_2011: Z_201_0_1 <= 1
 constraint2_2012: Z_201_0_2 <= 1
 constraint2_2013: Z_201_0_3 <= 1
Bounds
Binaries
 Z_403_0_0 Z_403_0_1 Z_403_0_2 Z_403_0_3 Z_510_0_0 Z_510_0_1 Z_510_0_2
 Z_510_0_3 Z_510_2_0 Z_510_2_1 Z_510_2_2 Z_510_2_3 Z_510_1_0 Z_510_1_1
 Z_510_1_2 Z_510_1_3 Z_154_0_0 Z_154_0_1 Z_154_0_2 Z_154_0_3 Z_154_1_0
 Z_154_1_1 Z_154_1_2 Z_154_1_3 Z_154_2_0 Z_154_2_1 Z_154_2_2 Z_154_2_3
 Z_125_0_0 Z_125_0_1 Z_125_0_2 Z_125_0_3 Z_433_0_0 Z_433_0_1 Z_433_0_2
 Z_433_0_3 Z_51_0_0 Z_51_0_1 Z_51_0_2 Z_51_0_3 Z_627_0_0 Z_627_0_1
 Z_627_0_2 Z_627_0_3 Z_201_0_0 Z_201_0_1 Z_201_0_2 Z_201_0_3
End
